10
0 2 0 2 5 6 6 10 1 4
5 0 10 6 2 9 1 5 6 3
10 1 0 0 10 0 10 0 8 1
9 10 8 0 3 0 1 7 10 6
5 6 9 4 0 7 0 2 9 3
6 2 0 6 9 0 1 6 5 4
1 5 4 9 10 6 0 4 9 1
2 0 4 4 3 9 0 0 3 10
5 4 1 7 0 9 6 6 0 8
9 6 1 1 7 5 0 5 4 0